width,height
25,25
4,4
5,21
4,17
1,24
5,7
3,19
1,10
2,24
4,20
4,21
1,14
3,11
3,24
5,12
1,24
1,24
4,12
3,12
2,22
2,6
1,25
2,18
4,25
2,3
2,22
4,21
4,12
4,11
3,6
3,18
2,1
1,7
2,5
3,21
4,12
4,24
2,11
5,15
3,19
3,9
3,1
5,5
5,23
4,7
1,18
3,21
2,23
5,15
1,11
3,12
1,1
4,12
1,14
1,17
1,14
3,5
3,3
4,20
3,25
3,12
5,8
4,23
2,5
3,7
1,15
4,10
1,6
4,25
1,21
2,18
1,3
3,1
1,17
2,4
4,10
4,9
4,5
2,10
1,9
3,22
1,14
3,24
3,11
5,20
1,17
5,17
5,18
1,8
2,3
3,7
5,8
3,24
4,13
2,19
5,2
5,10
1,5
1,4
4,19
5,23
